cases/matpower/case5_clm.m
ipopt
SOCW
[info | PowerModels]: extending matpower format with data: branch_currents 7x2
[info | PowerModels]: extending matpower format by appending matrix "branch_currents" in to "branch"
[warn | PowerModels]: the voltage setpoint on generator 4 does not match the value at bus 4
[warn | PowerModels]: the voltage setpoint on generator 1 does not match the value at bus 1
[warn | PowerModels]: the voltage setpoint on generator 5 does not match the value at bus 10
[warn | PowerModels]: the voltage setpoint on generator 2 does not match the value at bus 1
[warn | PowerModels]: the voltage setpoint on generator 3 does not match the value at bus 3
[info | PowerModels]: removing 1 cost terms from generator 4: [4000.0, 0.0]
[info | PowerModels]: removing 1 cost terms from generator 1: [1400.0, 0.0]
[info | PowerModels]: removing 1 cost terms from generator 5: [1000.0, 0.0]
[info | PowerModels]: removing 1 cost terms from generator 2: [1500.0, 0.0]
[info | PowerModels]: removing 1 cost terms from generator 3: [3000.0, 0.0]

******************************************************************************
This program contains Ipopt, a library for large-scale nonlinear optimization.
 Ipopt is released as open source code under the Eclipse Public License (EPL).
         For more information visit http://projects.coin-or.org/Ipopt
******************************************************************************

This is Ipopt version 3.13.2, running with linear solver mumps.
NOTE: Other linear solvers might be more efficient (see Ipopt documentation).

Number of nonzeros in equality constraint Jacobian...:      150
Number of nonzeros in inequality constraint Jacobian.:       84
Number of nonzeros in Lagrangian Hessian.............:       18

Total number of variables............................:       55
                     variables with only lower bounds:        0
                variables with lower and upper bounds:       55
                     variables with only upper bounds:        0
Total number of equality constraints.................:       38
Total number of inequality constraints...............:       30
        inequality constraints with only lower bounds:       18
   inequality constraints with lower and upper bounds:        0
        inequality constraints with only upper bounds:       12

iter    objective    inf_pr   inf_du lg(mu)  ||d||  lg(rg) alpha_du alpha_pr  ls
   0  1.0059989e+02 3.99e+00 2.94e+01  -1.0 0.00e+00    -  0.00e+00 0.00e+00   0
   1  3.3557762e+02 3.87e+00 2.77e+01  -1.0 2.00e+01    -  8.87e-03 3.08e-02h  1
   2  3.0259169e+02 3.82e+00 2.72e+01  -1.0 1.31e+01    -  1.49e-02 1.13e-02f  1
   3  6.5112483e+02 3.66e+00 4.58e+01  -1.0 9.43e+00    -  3.96e-01 4.39e-02h  1
   4  1.3239486e+03 3.36e+00 4.10e+01  -1.0 8.20e+00    -  7.25e-02 8.12e-02h  1
   5  2.2942821e+03 2.98e+00 2.28e+02  -1.0 8.58e+00    -  5.31e-01 1.13e-01h  1
   6  6.0386163e+03 1.55e+00 7.98e+01  -1.0 7.75e+00    -  3.09e-01 4.80e-01h  1
   7  6.1242965e+03 1.52e+00 8.54e+01  -1.0 2.17e+00    -  2.06e-02 1.77e-02h  1
   8  6.6092565e+03 1.39e+00 7.91e+01  -1.0 3.98e+00    -  8.97e-02 8.53e-02h  1
   9  6.6444895e+03 1.38e+00 8.57e+01  -1.0 3.04e+00    -  9.23e-03 6.56e-03h  1
iter    objective    inf_pr   inf_du lg(mu)  ||d||  lg(rg) alpha_du alpha_pr  ls
  10  9.0665369e+03 7.78e-01 9.38e+01  -1.0 3.74e+00    -  8.62e-01 4.37e-01h  1
  11  9.0966395e+03 7.71e-01 4.23e+02  -1.0 1.65e+00    -  5.18e-01 9.89e-03h  1
  12  9.1453056e+03 7.58e-01 2.00e+02  -1.0 1.11e+01    -  7.53e-03 1.69e-02h  1
  13  1.5082621e+04 3.21e-14 1.91e+02  -1.0 1.98e+00    -  7.43e-03 1.00e+00h  1
  14  1.5076616e+04 3.59e-14 1.17e+01  -1.0 4.51e-02    -  1.00e+00 1.00e+00f  1
  15  1.5075271e+04 2.05e-14 1.52e-01  -1.0 1.88e-02    -  1.00e+00 1.00e+00f  1
  16  1.5027986e+04 1.58e-05 3.26e+00  -2.5 2.76e-01    -  8.92e-01 1.00e+00f  1
  17  1.5021253e+04 8.21e-06 8.55e+00  -2.5 1.99e-01    -  1.00e+00 7.80e-01f  1
  18  1.5020768e+04 4.45e-07 1.45e-02  -2.5 2.58e-01    -  1.00e+00 1.00e+00f  1
  19  1.5019418e+04 6.30e-07 4.46e-01  -3.8 9.81e-02    -  1.00e+00 8.76e-01f  1
iter    objective    inf_pr   inf_du lg(mu)  ||d||  lg(rg) alpha_du alpha_pr  ls
  20  1.5019305e+04 1.65e-14 3.99e-04  -3.8 4.40e-02    -  1.00e+00 1.00e+00f  1
  21  1.5019232e+04 1.69e-08 3.69e-03  -5.7 1.73e-02    -  1.00e+00 9.73e-01f  1
  22  1.5019230e+04 1.18e-14 7.12e-07  -5.7 2.78e-03    -  1.00e+00 1.00e+00f  1
  23  1.5019229e+04 1.68e-14 6.71e-09  -8.6 1.95e-04    -  1.00e+00 1.00e+00h  1

Number of Iterations....: 23

                                   (scaled)                 (unscaled)
Objective...............:   3.7548071431453508e+02    1.5019228572581402e+04
Dual infeasibility......:   6.7053787322329846e-09    2.6821514928931938e-07
Constraint violation....:   1.6785184353551585e-14    1.6785184353551585e-14
Complementarity.........:   6.3838098799064223e-09    2.5535239519625687e-07
Overall NLP error.......:   6.7053787322329846e-09    2.6821514928931938e-07


Number of objective function evaluations             = 24
Number of objective gradient evaluations             = 24
Number of equality constraint evaluations            = 24
Number of inequality constraint evaluations          = 24
Number of equality constraint Jacobian evaluations   = 24
Number of inequality constraint Jacobian evaluations = 24
Number of Lagrangian Hessian evaluations             = 23
Total CPU secs in IPOPT (w/o function evaluations)   =      0.277
Total CPU secs in NLP function evaluations           =      0.210

EXIT: Optimal Solution Found.
Time to Solution........:1.234510898590088
cases/matpower/case5_clm.m
ipopt
QCRM
[info | PowerModels]: extending matpower format with data: branch_currents 7x2
[info | PowerModels]: extending matpower format by appending matrix "branch_currents" in to "branch"
[warn | PowerModels]: the voltage setpoint on generator 4 does not match the value at bus 4
[warn | PowerModels]: the voltage setpoint on generator 1 does not match the value at bus 1
[warn | PowerModels]: the voltage setpoint on generator 5 does not match the value at bus 10
[warn | PowerModels]: the voltage setpoint on generator 2 does not match the value at bus 1
[warn | PowerModels]: the voltage setpoint on generator 3 does not match the value at bus 3
[info | PowerModels]: removing 1 cost terms from generator 4: [4000.0, 0.0]
[info | PowerModels]: removing 1 cost terms from generator 1: [1400.0, 0.0]
[info | PowerModels]: removing 1 cost terms from generator 5: [1000.0, 0.0]
[info | PowerModels]: removing 1 cost terms from generator 2: [1500.0, 0.0]
[info | PowerModels]: removing 1 cost terms from generator 3: [3000.0, 0.0]

******************************************************************************
This program contains Ipopt, a library for large-scale nonlinear optimization.
 Ipopt is released as open source code under the Eclipse Public License (EPL).
         For more information visit http://projects.coin-or.org/Ipopt
******************************************************************************

This is Ipopt version 3.13.2, running with linear solver mumps.
NOTE: Other linear solvers might be more efficient (see Ipopt documentation).

Number of nonzeros in equality constraint Jacobian...:      200
Number of nonzeros in inequality constraint Jacobian.:      362
Number of nonzeros in Lagrangian Hessian.............:       29

Total number of variables............................:       95
                     variables with only lower bounds:        6
                variables with lower and upper bounds:       84
                     variables with only upper bounds:        0
Total number of equality constraints.................:       51
Total number of inequality constraints...............:      136
        inequality constraints with only lower bounds:       71
   inequality constraints with lower and upper bounds:        0
        inequality constraints with only upper bounds:       65

iter    objective    inf_pr   inf_du lg(mu)  ||d||  lg(rg) alpha_du alpha_pr  ls
   0  1.0059989e+02 4.83e+01 2.89e+01  -1.0 0.00e+00    -  0.00e+00 0.00e+00   0
   1  3.3014556e+03 4.11e+01 5.02e+01  -1.0 2.56e+00    -  4.01e-03 1.51e-01h  1
   2  3.0757295e+03 4.05e+01 4.95e+01  -1.0 1.30e+01    -  1.27e-02 1.35e-02f  1
   3  2.7790272e+03 3.99e+01 4.87e+01  -1.0 1.37e+01    -  1.31e-02 1.60e-02f  1
   4  2.5561833e+03 3.84e+01 4.69e+01  -1.0 1.08e+01    -  2.21e-02 3.66e-02f  1
   5  2.6462831e+03 3.78e+01 4.62e+01  -1.0 7.87e+00    -  6.28e-02 1.47e-02h  1
   6  4.9601509e+03 2.69e+01 3.30e+01  -1.0 7.54e+00    -  1.38e-01 2.89e-01h  1
   7  6.1795705e+03 2.09e+01 2.58e+01  -1.0 1.19e+01    -  9.81e-02 2.24e-01h  1
   8  7.4867894e+03 1.48e+01 1.79e+01  -1.0 1.73e+01    -  3.98e-01 2.91e-01h  1
   9  9.0699062e+03 9.74e+00 1.29e+01  -1.0 7.34e+00    -  2.45e-01 3.42e-01h  1
iter    objective    inf_pr   inf_du lg(mu)  ||d||  lg(rg) alpha_du alpha_pr  ls
  10  9.0996863e+03 9.65e+00 2.25e+01  -1.0 6.14e+00    -  2.38e-01 9.94e-03h  1
  11  1.0386221e+04 7.53e+00 1.34e+01  -1.0 1.90e+00    -  2.39e-03 2.20e-01h  1
  12  1.5076416e+04 2.62e-12 1.46e+00  -1.0 1.61e+00    -  9.69e-01 1.00e+00h  1
  13  1.5093722e+04 1.49e-11 7.11e+00  -1.0 2.86e+00    -  9.02e-01 1.00e+00f  1
  14  1.5096044e+04 3.88e-12 2.19e-03  -1.0 6.61e-01    -  1.00e+00 1.00e+00h  1
  15  1.5050683e+04 1.42e-02 1.27e+01  -2.5 3.67e+00    -  9.07e-01 8.21e-01f  1
  16  1.5035052e+04 5.42e-02 1.10e+00  -2.5 1.43e+00    -  9.44e-01 1.00e+00f  1
  17  1.5020579e+04 4.90e-02 1.56e-01  -2.5 8.94e-01    -  1.00e+00 1.00e+00h  1
  18  1.5024890e+04 5.69e-12 4.31e-02  -2.5 2.06e-01    -  1.00e+00 1.00e+00h  1
  19  1.5024940e+04 1.88e-12 2.28e-04  -2.5 1.58e-02    -  1.00e+00 1.00e+00h  1
iter    objective    inf_pr   inf_du lg(mu)  ||d||  lg(rg) alpha_du alpha_pr  ls
  20  1.5019635e+04 3.49e-03 2.08e-01  -3.8 4.31e-01    -  9.17e-01 8.57e-01f  1
  21  1.5019300e+04 2.13e-03 9.35e-01  -3.8 1.50e-01    -  1.00e+00 8.76e-01h  1
  22  1.5019388e+04 4.59e-12 7.46e-02  -3.8 3.71e-02    -  9.95e-01 1.00e+00h  1
  23  1.5019397e+04 1.17e-11 8.30e-05  -3.8 1.07e-03    -  1.00e+00 1.00e+00h  1
  24  1.5019257e+04 4.99e-12 1.70e+00  -5.7 3.12e-02    -  9.88e-01 7.60e-01f  1
  25  1.5019232e+04 1.90e-06 3.26e-01  -5.7 9.39e-03    -  1.00e+00 9.47e-01h  1
  26  1.5019231e+04 3.83e-12 3.77e-05  -5.7 8.86e-04    -  1.00e+00 1.00e+00f  1
  27  1.5019231e+04 1.73e-11 3.23e-06  -5.7 6.98e-05    -  1.00e+00 1.00e+00h  1
  28  1.5019230e+04 4.83e-12 2.09e+00  -8.6 4.66e-04    -  1.00e+00 7.97e-01h  1
  29  1.5019230e+04 1.27e-12 1.17e+00  -8.6 2.06e-04    -  9.84e-01 7.61e-01f  1
iter    objective    inf_pr   inf_du lg(mu)  ||d||  lg(rg) alpha_du alpha_pr  ls
  30  1.5019230e+04 8.84e-12 4.76e-08  -8.6 4.58e-05    -  1.00e+00 1.00e+00f  1
In iteration 30, 1 Slack too small, adjusting variable bound
  31  1.5019230e+04 4.83e-12 8.94e-02  -8.6 3.00e-06    -  1.00e+00 6.94e-01h  1
  32  1.5019230e+04 4.25e-12 1.73e-11  -8.6 1.43e-07    -  1.00e+00 1.00e+00h  1

Number of Iterations....: 32

                                   (scaled)                 (unscaled)
Objective...............:   3.7548074035756281e+02    1.5019229614302512e+04
Dual infeasibility......:   1.7341794666947408e-11    6.9367178667789631e-10
Constraint violation....:   2.5037822597717703e-14    4.2506727304658654e-12
Complementarity.........:   2.7608111218151388e-09    1.1043244487260555e-07
Overall NLP error.......:   2.7608111218151388e-09    1.1043244487260555e-07


Number of objective function evaluations             = 33
Number of objective gradient evaluations             = 33
Number of equality constraint evaluations            = 33
Number of inequality constraint evaluations          = 33
Number of equality constraint Jacobian evaluations   = 33
Number of inequality constraint Jacobian evaluations = 33
Number of Lagrangian Hessian evaluations             = 32
Total CPU secs in IPOPT (w/o function evaluations)   =      0.288
Total CPU secs in NLP function evaluations           =      0.210

EXIT: Optimal Solution Found.
Time to Solution........:1.2651360034942627
